100 8
418 610
813 348
339 575
156 694
410 400
518 537
682 536
693 315
680 236
814 300
818 319
97 486
74 168
920 476
809 184
95 171
597 305
320 538
845 193
884 336
216 148
639 695
673 677
729 586
196 29
99 217
249 36
141 309
58 80
364 589
577 264
254 819
824 317
836 211
706 230
807 327
267 855
620 303
807 224
387 582
608 306
807 247
525 218
567 120
627 142
444 571
750 598
360 825
517 662
841 328
580 232
622 617
808 199
462 69
221 124
874 372
253 673
729 527
812 466
92 299
580 311
804 400
483 249
534 814
444 597
576 553
86 273
321 653
627 404
832 205
717 620
842 710
516 516
255 526
939 45
856 648
188 424
691 428
676 560
793 478
607 523
568 505
475 104
700 325
535 410
577 650
336 572
23 176
582 433
531 443
858 351
484 849
399 408
943 363
983 323
370 800
401 762
424 651
532 525
797 584
